c FILE /home/rafael/Documents/HappySet/MIHS/inputs/happygen/output/graph_d_regular_k7_p0.2_v50_20241127_082642.txt
c SOURCE This is a d-regular graph formed for the happy graph colouring problem.
c DESCRIPTION It was generated using the problem generator of Rhyd Lewis
c
c GRAPH STATS
c Seed                             = 177623097
c Number of Nodes                  = 50
c Number of colours k              = 7
c Number of pre-assignments        = 10
c Degree of all vertices           = 6
c Density                          = 0.122449
c 
c The degrees of nodes 1 to 50, respectively, are as follows 
c [6, 6, 6, 6, 6, 6, 6, 6, 6, 6, 6, 6, 6, 6, 6, 6, 6, 6, 6, 6, 6, 6, 6, 6, 6, 6, 
c  6, 6, 6, 6, 6, 6, 6, 6, 6, 6, 6, 6, 6, 6, 6, 6, 6, 6, 6, 6, 6, 6, 6, 6] 
c  
p edge 50 150 7
e 1 3
e 1 13
e 1 16
e 1 33
e 1 43
e 1 45
e 2 6
e 2 25
e 2 34
e 2 35
e 2 38
e 2 49
e 3 9
e 3 12
e 3 23
e 3 31
e 3 36
e 4 15
e 4 17
e 4 27
e 4 29
e 4 36
e 4 44
e 5 7
e 5 10
e 5 19
e 5 31
e 5 34
e 5 38
e 6 7
e 6 10
e 6 29
e 6 40
e 6 42
e 7 8
e 7 21
e 7 27
e 7 44
e 8 11
e 8 22
e 8 42
e 8 46
e 8 48
e 9 19
e 9 30
e 9 35
e 9 41
e 9 42
e 10 20
e 10 27
e 10 28
e 10 39
e 11 29
e 11 33
e 11 36
e 11 48
e 11 49
e 12 25
e 12 35
e 12 39
e 12 42
e 12 50
e 13 26
e 13 28
e 13 32
e 13 39
e 13 42
e 14 15
e 14 16
e 14 24
e 14 28
e 14 43
e 14 47
e 15 18
e 15 36
e 15 37
e 15 45
e 16 17
e 16 19
e 16 39
e 16 44
e 17 20
e 17 28
e 17 30
e 17 48
e 18 21
e 18 23
e 18 30
e 18 45
e 18 49
e 19 21
e 19 37
e 19 49
e 20 25
e 20 28
e 20 30
e 20 48
e 21 36
e 21 38
e 21 47
e 22 23
e 22 35
e 22 37
e 22 44
e 22 48
e 23 33
e 23 34
e 23 40
e 24 25
e 24 31
e 24 40
e 24 43
e 24 47
e 25 43
e 25 45
e 26 32
e 26 33
e 26 37
e 26 46
e 26 50
e 27 29
e 27 35
e 27 37
e 28 46
e 29 31
e 29 50
e 30 31
e 30 37
e 31 46
e 32 36
e 32 38
e 32 47
e 32 49
e 33 40
e 33 43
e 34 38
e 34 48
e 34 49
e 35 39
e 38 50
e 39 41
e 40 41
e 40 47
e 41 44
e 41 46
e 41 47
e 42 50
e 43 50
e 44 45
e 45 46
n 5 5
n 6 7
n 12 6
n 15 4
n 21 2
n 28 3
n 35 6
n 41 5
n 43 1
n 49 1
